(set-logic HORN)
(set-info :source |
    Benchmark: C_VC
    Output by Princess (http://www.philipp.ruemmer.org/princess.shtml)
|)
(set-info :status unknown)
(declare-fun inv_main11 (Int Int Int) Bool)
(declare-fun inv_main12 (Int Int Int) Bool)
(declare-fun inv_main2 () Bool)
(assert inv_main2 )
(assert (forall ((var0 Int)) (forall ((var1 Int)) (forall ((var2 Int)) (or (not (and (inv_main11 var2 var0 var1 ) (not (and (<= 0 (+ (+ 100 (* (- 1) var2 ) ) (- 1) ) ) (<= 0 (+ (+ var1 (- 100) ) (- 1) ) ) ) ) ) ) (inv_main12 var2 var0 var1 ) ) ) ) ) )
(assert (forall ((var0 Int)) (forall ((var1 Int)) (forall ((var2 Int)) (forall ((var3 Int)) (or (not (and (inv_main11 var2 var0 var1 ) (and (not (= var3 0 ) ) (and (<= 0 (+ (+ 100 (* (- 1) var2 ) ) (- 1) ) ) (<= 0 (+ (+ var1 (- 100) ) (- 1) ) ) ) ) ) ) (inv_main11 (+ var2 1 ) var0 var1 ) ) ) ) ) ) )
(assert (forall ((var0 Int)) (forall ((var1 Int)) (forall ((var2 Int)) (forall ((var3 Int)) (or (not (and (inv_main11 var3 var1 var2 ) (and (= var0 0 ) (and (<= 0 (+ (+ 100 (* (- 1) var3 ) ) (- 1) ) ) (<= 0 (+ (+ var2 (- 100) ) (- 1) ) ) ) ) ) ) (inv_main11 (+ var3 (- 1) ) var1 (+ var2 (- 1) ) ) ) ) ) ) ) )
(assert (forall ((var0 Int)) (forall ((var1 Int)) (forall ((var2 Int)) (or (not inv_main2 ) (inv_main11 var1 var0 var2 ) ) ) ) ) )
(assert (forall ((var0 Int)) (forall ((var1 Int)) (forall ((var2 Int)) (not (inv_main12 var2 var0 var1 ) ) ) ) ) )
(check-sat)
